Route #1: 3 93 15 66 103 89 91
Route #2: 75 18 59 23 44 90
Route #3: 88 1 52 119 20 50 78
Route #4: 127 74 125 31 69 97 14 70 53
Route #5: 83 109 51 120 8 37
Route #6: 117 28 99 42 102 38 118
Route #7: 24 47 123 5 106 80 98
Route #8: 68 36 126 26 107 128 122
Route #9: 71 108 72 112 12 114 32
Route #10: 16 96 95 116 92 49 73 100
Route #11: 11 41 85 61 76 104 10 40
Route #12: 110 17 58 101 55 79 105 65 115
Route #13: 87 121 94 4 81 111 27
Route #14: 113 82 124 9 63
Route #15: 19 6 29 45 22 54 7
Route #16: 67 30 43 84 25 39
Route #17: 60 57 62 13 56 77 35
Route #18: 64 46 33 21 34 2 48 86
Cost 36483
